233088.0
3087
0 2 3 5 8 9 13 14 17 18 20 21 22 23 24 25 26 27 29 30 33 36 37 42 43 44 48 49 50 51 53 56 58 59 61 63 66 67 68 69 70 75 77 80 81 82 83 84 85 86 87 88 89 90 91 92 94 96 99 101 102 104 105 106 109 110 111 112 113 114 115 118 121 122 123 124 125 126 128 129 131 132 134 136 137 138 140 141 144 145 146 147 150 151 153 154 155 158 159 161 162 163 164 166 167 169 171 173 175 178 179 180 184 185 189 190 191 193 194 195 196 197 198 199 